(set-logic ALL)
(declare-fun var0 () String)
(assert (str.in_re var0 (re.++ (re.union (re.* (str.to_re "0")) (re.* (str.to_re "1"))) (re.++ (re.+ (re.* (str.to_re "222"))) (re.++ (re.+ (re.* (str.to_re "333"))) (re.++ (re.+ (re.* (str.to_re "4"))) (re.++ (re.+ (re.+ (str.to_re "5"))) (re.++ (re.* (re.+ (str.to_re "66"))) (re.++ (re.union (re.union (str.to_re "777") (str.to_re "8")) (re.union (str.to_re "9") (str.to_re "a"))) (re.++ (re.+ (re.+ (str.to_re "bb"))) (re.++ (re.+ (re.union (str.to_re "c") (str.to_re "ddd"))) (re.++ (re.union (re.+ (str.to_re "ee")) (re.+ (str.to_re "ff"))) (re.++ (re.* (re.+ (str.to_re "gg"))) (re.++ (re.+ (re.* (str.to_re "h"))) (re.++ (re.+ (re.union (str.to_re "ii") (str.to_re "j"))) (re.++ (re.* (re.* (str.to_re "kk"))) (re.++ (re.union (re.* (str.to_re "lll")) (re.* (str.to_re "mm"))) (re.++ (re.* (re.+ (str.to_re "n"))) (re.++ (re.union (re.* (str.to_re "oo")) (re.* (str.to_re "p"))) (re.++ (re.* (re.* (str.to_re "q"))) (re.++ (re.* (re.union (str.to_re "rrr") (str.to_re "ss"))) (re.++ (re.* (re.+ (str.to_re "ttt"))) (re.++ (re.union (re.+ (str.to_re "uu")) (re.+ (str.to_re "vvv"))) (re.++ (re.union (re.* (str.to_re "w")) (re.* (str.to_re "x"))) (re.++ (re.+ (re.union (str.to_re "y") (str.to_re "z"))) (re.++ (re.union (re.union (str.to_re "A") (str.to_re "BB")) (re.union (str.to_re "CC") (str.to_re "D"))) (re.++ (re.union (re.+ (str.to_re "E")) (re.+ (str.to_re "FF"))) (re.++ (re.+ (re.* (str.to_re "G"))) (re.++ (re.+ (re.+ (str.to_re "HH"))) (re.++ (re.* (re.* (str.to_re "II"))) (re.++ (re.+ (re.union (str.to_re "JJJ") (str.to_re "KK"))) (re.++ (re.+ (re.* (str.to_re "LL"))) (re.++ (re.union (re.+ (str.to_re "MMM")) (re.+ (str.to_re "NNN"))) (re.++ (re.+ (re.union (str.to_re "OO") (str.to_re "PP"))) (re.union (re.+ (str.to_re "QQQ")) (re.+ (str.to_re "RR")))))))))))))))))))))))))))))))))))))
(check-sat)